85 12 85 12 85 12 85 12 12 12 85 85 85 85 85 85 12 12 12 12 12 12 85 12 85 12 85 12 85 12 85 85 85 85 12 85 12 12 12 12 85 85 12 12 85 12 12 12 85 85 12 12 12 12 85 12 12 12 12 12 85 12 85 85 85 12 85 12 12 12 85 12 12 85 85 12 12 85 12 85 85 85 12 85 12 85 12 85 12 85 85 12 85 85 12 85 12 12 12 85 85 85 85 85 85 85 12 12 85 85 12 12 85 12 12 85 12 85 85 85 12 85 12 12 85 85 12 85 12 85 85 12 85 85 12 85 12 12 85 12 12 12 85 85 85 12 85 12 85 85 12 12 12 85 85 12 85 12 12 12 12 85 12 85 85 85 85 12 12 85 12 12 85 12 12 85 12 12 85 12 12 12 85 85 85 85 85 85 12 12 85 85 12 12 85 85 12 12 12 12 12 85 85 12 85 12 85 12 85 85 85 12 12 85 85 12 85 85 85 12 12 85 12 12 12 85 12 85 12 85 12 85 12 12 85 12 85 85 85 85 85 85 85 12 85 85 12 85 85 12 12 12 12 85 85 85 85 12 85 12 85 85 85 12 12 85 85 85 85 85 85 85 85 85 12 85 85 85 85 85 12 12 85 85 12 85 85 85 85 12 12 85 12 12 12 85 12 12 85 12 12 12 12 12 12 12 12 85 12 12 85 12 85 85 12 12 12 85 12 12 12 12 12 85 85 85 85 85 12 12 12 85 85 12 12 12 85 85 12 12 12 85 85 12 85 85 85 12 85 85 85 12 12 12 12 12 12 12 12 85 85 12 85 85 85 12 85 85 12 12 12 85 12 85 12 85 85 85 12 85 85 85 12 12 12 85 85 12 12 85 12 85 12 85 85 12 12 85 12 12 85 85 12 12 85 12 12 85 12 12 85 12 12 12 85 85 12 85 12 12 85 12 12 12 12 12 85 85 85 12 12 85 85 12 12 85 85 12 12 12 85 12 85 12 12 85 12 85 85 12 12 12 85 85 85 12 85 12 12 85 85 12 85 85 85 12 12 85 85 85 12 85 12 12 12 85 12 12 12 12 85 85 85 85 12 12 12 12 85 85 12 85 12 12 12 12 85 85 12 12 85 85 12 12 12 12 85 85 85 12 85 85 12 85 85 85 12 12 12 12 12 85 85 12 12 12 85 85 12 85 12 12 85 85 85 85 12 85 85 12 12 85 12 12 12 12 12 85 85 12 85 85 12 85 12 12 12 12 12 85 12 85 12 85 85 12 85 85 85 85 12 12 12 12 85 85 85 85 85 12 12 85 12 85 85 85 12 12 12 85 12 12 85 85 12 12 85 12 12 85 12 85 12 85 12 85 85 85 85 12 12 12 12 85 12 85 85 12 12 12 12 12 85 85 12 12 12 12 85 85 12 85 85 12 85 85 12 12 85 12 85 12 85 12 12 12 12 12 85 12 85 85 85 12 85 12 85 12 12 12 12 85 12 12 12 12 12 85 85 12 12 85 85 12 85 12 12 12 85 12 85 12 12 85 85 12 85 85 85 12 12 12 12 85 12 12 85 85 12 85 85 12 12 85 85 12 85 12 85 85 12 12 12 85 12 12 85 12 85 85 85 12 85 85 85 12 12 85 12 85 85 12 12 12 85 85 85 85 12 12 85 85 85 85 12 12 12 12 12 12 12 12 12 12 12 12 85 85 12 85 12 12 12 85 12 12 85 12 12 85 85 85 85 85 85 12 85 12 85 12 12 85 85 85 12 85 12 85 85 85 85 12 12 12 85 85 12 85 85 85 85 85 85 12 12 85 85 12 85 12 85 12 12 85 12 85 85 85 85 12 85 85 85 12 85 85 85 12 12 85 12 12 85 85 85 12 85 12 85 85 85 85 12 12 12 85 12 12 85 85 85 85 85 12 85 85 12 85 12 85 85 12 85 85 12 85 85 12 12 85 85 12 12 12 85 85 85 85 12 85 85 85 12 85 12 12 12 85 12 85 12 12 12 12 12 85 12 12 85 12 85 85 85 12 12 12 12 12 12 85 85 12 85 12 12 12 85 85 85 12 12 12 85 85 85 12 12 12 12 12 85 12 12 12 85 85 85 12 85 12 12 85 85 85 12 12 12 12 85 12 85 12 85 85 12 85 12 85 85 85 12 85 12 85 12 12 12 12 85 12 85 85 12 85 85 85 85 12 12 85 12 12 12 12 12 85 85 85 12 85 12 85 85 85 12 85 85 85 12 85 12 85 85 85 85 85 85 85 85 12 85 12 85 12 85 12 85 85 12 12 85 85 12 12 12 85 12 12 85 85 12 12 85 85 12 12 85 12 12 85 85 85 12 85 12 85 12 12 85 12 85 12 12 85 85 85 85 12 12 12 12 12 85 85 12 85 12 12 12 85 85 85 85 12 85 85 12 85 12 85 12 85 12 85 85 12 12 85 85 85 12 12 12 85 12 85 85 85 85 12 12 85 12 12 12 85 12 12 85 12 12 12 12 85 12 12 12 85 12 12 12 12 85 85 12 85 12 12 85 12 85 12 12 85 12 85 85 85 12 85 12 85 12 85 85 85 12 12 12 12 85 85 85 12 85 12 12 12 85 12 85 85 12 12 85 85 85 85 85 12 85 85 85 12 85 85 85 85 85 12 12 85 12 12 12 12 85 85 12 85 85 12 85 12 12 12 12 12 12 12 85 85 12 85 12 85 12 12 85 12 85 12 12 12 85 12 12 85 12 85 85 12 12 85 85 85 12 12 12 12 12 85 12 85 85 85 85 12 85 85 85 85 12 85 85 12 12 12 12 85 12 12 85 85 85 85 12 12 85 85 85 12 85 12 12 12 85 85 85 85 85 12 85 85 12 85 12 85 12 12 85 85 85 85 12 85 12 85 85 12 85 85 85 12 85 12 85 85 12 85 85 85 12 85 85 85 12 12 85 85 85 12 12 12 12 85 12 85 85 12 12 85 85 12 12 85 12 12 85 85 85 85 85 12 85 85 85 12 85 85 85 85 12 12 12 12 12 12 12 12 85 12 12 85 85 12 85 12 85 85 85 85 85 85 85 12 12 85 85 12 85 85 12 85 12 12 12 85 85 85 12 85 12 12 12 85 85 12 12 85 85 12 12 85 85 12 12 12 12 85 85 12 85 12 12 85 85 85 85 85 12 85 12 85 12 85 85 12 12 85 12 12 12 85 85 12 12 12 85 85 12 85 85 85 85 12 85 85 85 85 12 12 85 85 12 12 85 85 85 12 85 85 12 12 85 12 12 85 85 12 85 85 85 85 85 85 85 85 85 85 85 12 12 12 12 85 85 12 85 12 12 85 12 85 85 12 12 12 12 12 85 85 12 85 85 12 85 85 12 12 85 85 85 12 12 85 85 12 12 85 85 85 12 12 85 12 12 12 85 85 12 85 85 85 12 12 85 12 12 12 85 85 12 12 12 85 12 12 85 85 85 85 12 12 85 12 85 12 12 85 12 85 85 85 85 12 12 85 12 85 85 12 85 12 85 85 85 12 12 85 85 12 85 12 85 85 85 85 12 12 85 12 12 12 12 85 85 85 85 12 85 85 12 12 85 12 12 85 12 85 85 12 85 85 85 85 12 85 12 85 85 12 12 12 85 85 12 12 85 85 85 12 85 12 85 85 12 12 85 85 12 85 12 12 12 12 85 85 12 12 85 12 85 85 12 12 85 85 85 12 85 85 85 12 85 85 12 12 12 85 12 85 85 85 85 12 12 85 12 85 12 85 85 12 85 12 85 85 12 85 12 85 12 12 12 12 12 85 85 85 85 12 12 12 12 12 85 85 12 85 85 85 85 85 12 85 12 85 85 12 85 85 12 12 12 85 85 12 85 85 12 12 12 85 85 85 12 85 85 85 85 12 85 85 12 85 85 12 85 12 85 85 12 12 85 85 12 85 12 12 12 12 85 85 12 85 12 12 12 12 12 12 85 85 85 85 85 85 12 85 12 12 85 85 85 85 12 12 12 85 85 85 12 12 85 12 12 12 85 85 12 12 85 12 12 85 12 12 85 85 12 85 12 85 85 12 85 12 85 12 85 12 12 12 85 85 85 12 12 85 85 85 85 85 85 12 85 12 12 85 85 85 85 12 85 12 12 12 85 12 85 85 85 85 85 85 85 85 85 12 12 85 85 12 85 85 85 85 12 12 85 12 85 12 12 85 85 85 12 85 12 85 12 85 85 12 85 85 12 85 12 85 85 12 12 85 12 85 85 12 12 12 85 12 85 12 85 85 12 12 85 12 12 12 12 12 85 12 12 85 85 12 85 85 85 85 12 85 85 12 12 12 85 12 12 85 12 12 85 85 85 12 12 85 85 85 12 12 85 12 12 85 85 12 85 85 12 12 85 12 12 12 12 12 12 85 85 85 12 85 85 12 12 85 12 85 85 12 12 85 85 85 85 85 12 12 85 12 85 12 85 12 85 12 12 12 12 12 12 85 12 85 85 12 85 12 12 85 85 85 12 85 85 12 85 12 85 12 85 12 85 12 85 85 85 12 85 85 85 12 85 85 12 85 12 12 85 85 85 85 85 12 12 85 85 12 12 12 85 85 85 85 12 85 12 12 85 12 12 85 85 85 85 85 85 12 12 85 12 12 12 12 85 85 12 12 12 12 85 85 12 85 85 85 85 12 12 85 85 12 12 12 12 12 12 12 12 85 85 85 85 12 85 85 12 12 12 85 85 12 85 12 12 12 12 85 85 12 85 12 85 12 85 12 12 12 85 85 12 85 85 12 12 85 85 85 85 12 12 85 12 12 85 85 85 12 85 12 85 12 85 85 85 85 12 12 12 85 12 85 85 85 85 85 85 85 85 85 12 12 12 85 12 12 12 12 85 12 85 12 85 85 12 12 85 12 85 12 12 85 85 12 85 85 12 85 85 85 12 12 12 85 85 85 12 12 85 12 85 85 85 12 12 85 85 12 12 85 12 85 85 12 12 85 12 12 12 12 12 85 85 85 85 85 12 12 12 12 85 85 12 12 12 85 12 12 85 85 12 12 85 85 85 12 85 12 85 12 85 12 12 85 85 12 12 12 85 85 85 12 85 12 85 12 85 12 85 85 12 85 12 12 85 12 85 85 85 12 85 85 85 12 85 85 12 12 12 12 85 12 85 85 12 85 85 12 12 85 12 85 85 85 12 85 12 85 12 12 12 12 12 12 85 12 85 12 12 12 12 12 12 12 12 85 85 12 12 12 85 85 85 85 85 12 12 12 12 85 85 85 12 12 85 12 85 85 12 12 12 85 85 85 12 85 85 12 12 12 12 12 12 12 85 12 85 12 85 85 12 85 85 85 12 85 12 85 85 85 12 85 85 85 85 85 85 12 12 12 85 85 12 85 12 12 12 85 85 85 85 12 85 85 12 85 12 85 85 12 12 12 12 12 12 85 12 12 12 12 12 12 12 85 12 12 12 12 12 12 12 12 85 12 12 12 12 85 12 12 85 85 12 12 85 85 12 12 85 85 85 12 85 85 12 12 12 85 85 85 12 12 12 12 12 85 85 85 12 12 85 12 85 12 85 85 12 85 12 12 85 85 85 85 85 12 85 12 12 85 12 85 85 85 12 12 85 12 12 12 12 12 85 12 85 12 12 85 12 85 12 12 85 85 85 85 12 85 12 12 85 85 12 85 85 12 12 12 85 12 85 12 85 12 85 12 85 12 12 12 85 85 85 85 85 85 12 85 85 85 12 12 12 85 12 12 12 12 85 85 85 12 12 85 85 85 12 85 12 85 12 12 12 12 85 12 85 12 12 85 12 85 12 85 12 12 85 85 85 85 85 85 12 85 85 12 85 85 12 12 85 85 12 12 85 12 12 85 85 85 85 12 12 85 85 85 12 85 85 12 85 12 12 85 12 12 12 12 12 12 85 85 12 12 12 12 85 85 12 85 12 85 85 85 85 85 85 12 85 85 85 85 12 12 85 85 85 85 12 85 12 85 85 85 12 12 85 85 85 12 85 12 12 85 12 12 85 12 85 85 12 85 12 12 12 12 12 85 12 12 85 85 12 85 12 85 12 12 85 12 85 12 85 85 12 12 12 85 85 85 85 85 85 12 12 85 12 85 85 85 12 85 12 85 85 85 12 12 12 12 12 12 85 12 12 85 12 12 85 12 12 85 12 12 85 85 12 12 12 12 12 85 12 85 12 12 85 85 12 12 12 85 12 85 12 85 85 85 12 85 85 85 85 12 85 85 85 12 12 12 12 12 12 85 12 85 85 85 85 12 12 85 12 85 85 85 12 85 12 85 85 12 12 85 85 12 12 85 85 85 12 12 12 12 85 12 12 85 12 85 12 85 85 85 12 85 85 85 85 12 85 85 85 12 85 12 85 12 12 12 85 12 85 12 85 85 85 12 85 12 12 12 85 12 12 12 12 85 12 12 12 12 12 85 12 85 12 12 12 85 85 12 12 12 12 12 12 12 12 85 12 85 12 12 85 12 85 12 12 12 12 85 85 85 85 12 85 12 12 85 85 12 12 12 85 85 12 85 85 85 85 12 85 12 85 85 85 85 85 12 12 12 85 12 12 85 12 85 85 85 85 85 12 12 12 85 85 85 85 85 85 85 12 12 12 12 12 85 12 12 12 85 85 12 12 85 85 85 85 85 85 85 85 85 12 12 85 12 85 85 12 85 85 85 12 12 12 12 12 85 85 12 85 12 85 85 12 85 85 12 85 12 12 85 12 85 85 12 85 85 12 12 85 12 85 85 85 12 12 85 85 12 12 85 85 12 85 12 85 12 85 85 85 12 12 12 85 12 85 85 12 12 12 12 85 12 12 85 12 85 85 12 85 12 12 85 12 85 85 12 12 85 12 12 85 85 85 85 12 85 85 85 12 12 85 12 12 12 12 85 85 85 12 85 12 85 85 85 85 85 12 12 12 12 85 12 12 85 12 12 85 12 12 12 85 12 85 12 12 85 12 12 85 85 12 12 12 12 85 12 85 12 12 12 85 12 85 85 85 12 12 85 85 85 85 85 85 85 85 12 85 12 85 85 85 12 85 12 85 85 85 85 12 12 12 85 12 12 85 12 85 12 12 85 12 12 12 12 85 12 85 85 85 85 12 85 12 12 12 85 12 85 85 85 12 85 85 85 12 85 12 85 12 12 85 12 85 12 85 85 85 12 12 12 12 85 12 12 12 12 12 85 12 12 85 85 12 12 12 12 12 85 12 12 12 12 85 85 12 85 85 12 12 12 85 12 12 85 85 85 12 12 85 85 85 12 85 85 85 12 12 12 85 85 85 12 12 85 12 85 12 85 85 85 12 85 12 12 85 12 12 12 85 85 12 12 12 85 12 12 12 85 85 12 85 12 12 12 12 85 85 85 85 85 12 85 85 85 12 12 85 85 85 85 85 85 12 12 85 85 85 12 85 12 12 85 85 85 85 12 85 85 85 12 85 12 12 85 12 85 12 12 85 85 85 12 85 12 85 85 85 12 12 85 85 85 12 85 85 12 12 12 12 12 85 12 85 12 12 85 12 12 12 12 12 12 85 12 12 12 12 12 85 85 12 85 12 85 85 12 12 12 85 85 12 85 12 12 12 12 12 85 85 12 85 12 85 85 85 12 12 12 85 12 12 85 12 85 85 12 85 85 12 85 85 85 12 85 12 85 12 12 12 12 85 12 85 85 12 85 85 12 12 85 85 85 85 85 12 12 12 12 12 85 12 12 85 85 12 85 12 85 12 85 12 12 12 12 12 85 12 12 12 85 85 85 12 85 85 85 12 12 12 85 85 85 85 85 12 12 85 85 85 12 85 12 85 12 12 85 12 85 12 12 12 12 12 85 85 12 85 12 85 12 85 85 12 85 12 85 12 12 85 12 12 85 12 12 12 85 12 12 85 12 85 12 85 12 12 85 85 12 85 85 85 85 12 85 85 85 85 12 12 12 12 85 12 85 85 12 85 12 85 85 85 85 85 12 12 12 12 12 12 12 12 12 12 85 12 12 85 85 12 85 12 85 85 85 85 85 12 85 85 12 85 85 12 85 12 85 85 12 12 12 85 12 85 85 12 85 12 85 85 85 85 12 85 85 12 85 12 12 85 12 85 12 12 85 12 12 85 12 85 85 85 85 12 12 85 85 12 85 85 12 85 85 85 12 12 12 12 85 85 85 12 12 12 85 12 85 12 12 85 12 12 85 85 85 12 85 12 85 85 12 12 12 85 12 85 12 12 12 12 12 12 85 85 85 85 12 12 85 12 12 12 85 12 12 12 12 85 85 12 85 12 12 12 12 85 12 85 12 12 12 12 85 12 12 12 85 12 85 85 85 12 12 85 85 12 12 12 12 12 12 12 12 85 12 85 85 85 12 85 12 85 12 85 85 85 12 85 12 12 85 12 85 12 85 85 85 12 85 12 12 12 12 85 12 85 85 12 85 12 12 85 85 85 85 85 12 12 85 85 85 85 85 85 12 85 85 85 12 85 12 85 12 85 85 85 85 12 85 12 85 12 12 85 85 12 85 12 85 85 12 85 85 12 85 85 12 85 85 12 12 12 12 85 85 85 12 85 12 12 12 12 85 85 85 85 12 85 12 12 12 12 12 12 85 12 12 85 85 12 12 12 12 85 12 12 85 85 12 12 12 12 12 85 12 12 85 12 12 85 85 85 12 85 85 12 12 12 12 12 12 85 85 85 12 85 12 12 85 85 12 85 12 85 85 12 12 85 85 85 85 85 12 12 85 12 12 85 85 85 12 12 12 85 12 85 85 85 12 85 12 85 85 85 85 85 12 12 12 12 85 12 85 12 12 85 85 85 85 85 85 85 85 12 85 12 12 85 85 12 85 12 12 12 12 85 12 12 12 85 85 12 85 85 85 12 12 85 12 12 12 12 12 12 12 12 85 85 12 85 12 85 12 12 12 12 12 85 85 85 12 85 85 12 12 85 85 85 12 12 12 85 85 12 12 12 85 12 85 85 85 12 85 12 85 12 85 12 12 85 85 85 12 85 12 85 85 12 85 12 85 12 12 12 85 85 85 12 85 85 12 85 85 12 12 85 85 85 85 12 85 85 85 12 85 12 12 85 12 12 85 12 12 12 85 12 85 12 85 85 12 12 85 12 85 12 85 85 12 85 85 85 85 85 12 85 12 12 85 85 85 85 85 12 85 85 12 85 12 12 85 12 12 85 85 12 12 85 85 12 85 85 12 85 85 85 85 12 12 12 85 85 12 85 12 12 85 85 12 85 85 12 12 12 12 12 85 12 85 85 85 85 85 12 12 85 12 12 85 12 85 85 12 85 85 85 12 85 12 12 85 12 85 12 85 85 12 85 12 12 12 12 12 12 85 85 85 12 85 85 85 85 85 12 85 85 85 85 85 12 12 12 85 12 85 85 12 12 85 85 85 12 12 85 12 12 85 12 12 85 12 12 12 12 12 12 12 12 12 12 85 85 85 85 85 12 85 12 85 85 85 12 85 12 12 12 12 12 85 85 85 12 12 12 85 85 85 12 12 85 85 12 85 12 12 85 85 12 85 85 85 85 12 85 12 85 12 85 85 12 85 85 85 85 12 85 85 12 12 85 12 12 12 85 85 12 85 85 85 85 12 85 85 85 85 85 12 12 85 12 85 12 12 85 12 85 85 12 12 12 12 12 12 12 12 12 85 12 85 85 85 12 12 85 12 12 85 85 12 12 12 12 85 85 85 12 85 85 85 85 85 85 12 12 12 85 85 12 12 85 12 12 12 85 85 12 85 85 12 12 12 12 85 12 12 85 85 85 12 12 85 12 12 12 85 85 12 85 12 85 12 85 85 85 12 85 12 12 85 12 85 85 85 85 12 12 12 85 12 85 12 12 12 85 85 12 85 12 12 12 85 85 12 85 12 85 85 85 12 85 12 12 85 12 85 85 12 12 85 85 12 12 85 85 12 85 12 12 85 85 85 85 12 12 85 85 85 85 85 12 85 85 12 12 12 12 12 85 85 12 12 12 85 12 12 12 12 85 85 12 85 85 12 12 12 12 12 12 12 85 12 85 85 85 12 12 12 85 85 12 12 12 85 12 85 12 85 12 12 85 12 12 85 85 12 12 85 85 12 12 85 85 12 85 85 85 85 12 85 85 85 12 12 85 85 12 12 85 85 85 85 12 12 85 85 85 85 85 12 12 12 12 12 12 85 12 12 85 85 85 85 85 12 12 85 85 85 12 85 85 12 12 85 85 12 85 12 12 85 85 85 12 12 12 85 12 85 85 12 85 85 12 85 12 85 85 12 85 12 85 12 85 12 12 12 85 12 85 85 12 85 85 85 12 85 12 12 85 12 85 12 12 85 12 85 85 85 85 12 12 85 85 85 12 12 12 12 85 12 12 12 12 85 12 85 85 85 12 85 12 85 12 85 85 12 12 85 12 12 12 85 12 12 85 85 85 12 12 85 85 12 12 12 12 12 85 12 12 12 12 12 12 12 12 12 85 85 85 12 12 12 12 85 12 85 85 12 12 85 85 85 12 12 12 85 85 12 12 85 12 85 12 85 12 85 85 12 12 85 85 85 12 85 12 85 85 12 85 12 12 85 12 85 12 12 85 85 85 12 85 12 85 12 85 12 12 85 12 85 85 12 12 12 12 85 85 12 12 85 12 12 85 85 12 12 12 85 12 85 12 12 12 12 85 12 12 85 12 85 85 12 12 12 12 12 12 12 85 12 12 12 85 12 85 12 85 12 12 85 12 12 12 12 85 85 85 12 85 85 12 85 12 12 85 85 85 12 12 85 85 85 85 85 12 85 85 85 12 12 85 12 85 12 85 12 12 85 85 12 85 85 85 85 12 85 85 12 12 85 12 85 85 12 85 85 12 85 85 12 85 85 85 85 12 85 12 12 85 85 85 12 85 85 12 12 85 12 85 85 12 12 85 85 12 85 85 85 12 85 12 12 85 12 12 12 12 12 85 85 12 12 12 12 12 85 85 85 12 85 85 12 12 85 12 85 85 12 12 12 12 85 85 12 85 85 85 12 12 12 12 85 85 85 12 12 85 12 12 85 12 12 12 85 12 85 12 85 12 85 12 85 85 85 12 85 85 12 85 12 85 12 12 85 85 85 85 85 12 12 85 85 12 12 85 85 12 12 85 85 12 85 85 85 85 12 85 85 12 85 12 12 85 85 85 85 85 85 85 12 12 12 12 85 85 12 12 85 12 12 85 85 12 12 85 12 85 12 12 12 12 85 12 12 85 12 12 85 12 85 12 85 12 85 12 12 85 85 12 12 12 85 12 12 12 85 85 12 12 85 12 85 85 85 85 12 12 12 12 85 12 12 85 85 12 12 85 12 12 12 85 12 12 85 85 85 85 85 85 12 85 12 12 12 12 12 85 85 12 12 85 85 85 85 12 85 85 12 12 12 85 85 85 85 85 85 85 85 12 85 12 12 12 85 85 85 85 85 85 12 85 85 12 85 12 85 85 12 12 85 85 85 85 12 85 85 12 85 85 85 12 12 85 85 12 85 12 12 12 12 85 12 85 85 12 12 85 85 85 85 85 85 85 85 12 85 85 12 85 85 12 12 12 12 85 85 85 12 85 12 85 85 85 85 85 12 12 12 12 12 12 12 85 12 12 12 12 12 85 12 12 85 12 85 12 12 12 12 85 12 85 85 12 85 12 85 85 85 12 12 85 85 12 85 12 85 12 85 85 85 12 12 85 85 85 12 12 12 12 12 85 12 85 12 85 12 12 85 12 85 12 12 85 85 12 12 12 12 12 12 12 12 85 12 12 85 85 12 12 12 85 12 12 85 12 12 12 85 12 12 12 85 85 12 12 85 12 85 12 85 12 85 12 12 12 12 85 12 85 12 12 85 12 85 12 85 12 85 85 85 12 12 85 85 12 12 85 85 12 12 85 85 12 85 85 85 12 85 12 12 12 85 12 85 85 85 85 12 12 12 12 85 85 85 85 12 12 85 12 12 12 85 12 85 85 12 85 12 12 85 85 12 85 12 12 12 85 85 85 12 12 85 12 12 85 85 12 12 85 85 85 85 85 85 85 85 12 12 12 12 12 12 85 12 12 12 85 12 12 12 85 85 12 12 85 12 12 12 85 85 12 12 85 85 12 85 85 85 12 85 12 85 12 12 85 85 12 85 12 85 12 12 12 85 12 12 12 85 85 85 85 12 12 85 12 85 12 85 85 85 85 85 12 12 12 12 85 85 12 12 12 12 12 85 12 85 12 12 85 12 12 12 85 85 12 85 85 85 85 85 12 85 85 85 12 85 12 12 85 85 12 12 12 85 12 12 85 85 85 85 12 12 12 85 12 12 85 12 12 85 12 85 85 85 85 12 85 12 12 85 85 85 85 12 85 12 85 85 85 85 85 12 12 85 12 85 12 12 12 85 12 12 12 12 12 12 12 12 12 85 12 12 85 12 85 85 12 12 85 12 12 85 85 12 85 85 12 12 12 12 85 12 85 12 85 12 85 12 85 12 12 12 85 12 12 12 12 85 85 12 12 12 85 12 85 85 12 85 85 12 12 85 85 12 12 85 85 12 85 85 12 12 12 12 12 85 85 85 85 85 85 12 85 85 12 85 85 85 85 85 12 12 85 12 85 12 85 85 12 85 85 85 12 85 12 85 85 85 12 12 85 12 85 85 12 12 12 12 85 12 85 12 12 85 12 12 85 12 85 12 12 85 12 85 85 85 12 12 85 85 85 12 12 85 12 85 85 85 12 85 85 12 12 12 85 85 85 85 12 85 12 85 12 85 12 12 85 85 85 12 85 85 85 12 12 12 12 12 85 85 12 85 85 85 12 85 12 12 85 85 85 12 12 12 12 85 85 12 85 12 85 85 12 85 12 85 85 85 12 85 85 85 85 85 12 12 85 85 85 85 85 85 12 12 12 85 12 85 85 12 12 85 12 85 12 85 12 12 85 85 12 12 12 12 12 85 85 85 85 85 85 85 12 85 85 85 85 12 85 85 12 12 12 85 85 85 12 12 12 12 12 85 85 85 12 85 85 12 85 85 12 85 12 85 85 12 12 12 85 12 12 12 12 85 85 12 85 12 85 12 85 12 12 12 85 85 12 85 12 12 12 12 12 85 12 85 12 85 12 12 85 85 12 12 12 12 85 12 85 85 12 85 12 85 12 12 12 85 85 85 12 12 12 12 12 12 12 85 12 85 12 12 85 85 85 12 12 85 12 12 85 85 85 85 85 12 12 12 85 12 85 12 85 12 85 12 85 12 12 85 12 12 12 85 12 85 12 12 85 85 85 12 85 85 12 12 85 85 85 85 85 85 12 85 85 85 85 85 12 12 85 12 85 85 12 85 85 85 12 85 12 12 12 12 85 85 85 85 12 12 85 12 12 12 12 12 12 12 85 12 12 85 85 12 85 12 12 85 12 85 12 85 85 85 85 85 12 85 85 85 12 85 12 12 12 85 85 12 85 85 85 12 12 85 85 12 12 85 85 85 85 12 12 85 12 12 85 85 12 85 85 12 85 12 85 85 85 85 12 85 12 12 12 85 12 12 12 85 12 12 85 85 85 12 85 85 85 12 85 85 12 12 12 85 85 12 85 85 12 12 85 85 85 12 85 12 12 85 12 85 12 12 85 85 12 12 85 12 85 85 12 12 12 85 12 85 12 12 85 12 85 12 12 85 85 85 12 12 85 85 85 12 85 85 12 12 12 12 85 12 85 85 12 12 85 85 12 85 85 85 12 85 12 85 12 12 85 85 12 85 12 12 85 12 12 12 85 12 12 85 85 12 85 12 85 12 85 85 12 85 85 85 85 12 85 12 85 12 85 12 12 12 85 12 85 85 12 85 12 85 85 12 12 12 12 12 85 12 12 12 12 12 12 12 85 12 12 12 85 12 85 85 85 12 12 85 12 85 85 85 85 85 12 12 12 85 12 12 12 85 85 85 85 12 85 85 12 12 12 12 85 85 12 85 12 12 85 85 12 85 85 85 85 12 12 85 85 85 12 12 12 85 85 12 12 85 12 85 12 12 85 12 12 12 12 85 85 12 85 85 12 85 85 12 12 12 12 12 85 12 12 12 12 12 85 85 12 12 12 85 85 12 12 12 85 85 12 12 12 12 12 85 12 12 12 12 85 12 85 85 85 12 12 12 85 12 12 12 12 85 12 12 12 85 12 85 85 85 12 12 85 85 12 12 12 12 85 12 85 12 85 85 85 12 12 12 12 85 85 85 12 85 12 85 85 85 85 12 12 12 85 12 12 85 85 85 12 12 85 12 85 85 12 85 12 85 12 85 85 85 85 12 85 85 85 85 85 85 12 12 85 85 85 12 85 12 85 12 85 85 85 85 85 12 85 12 12 85 85 12 85 85 12 85 85 12 85 12 12 85 85 12 85 12 12 85 85 12 12 85 12 12 85 12 85 85 85 12 85 85 85 85 12 12 85 12 85 12 85 85 12 12 12 12 85 85 12 85 12 85 85 85 12 85 12 12 85 85 85 12 85 85 12 12 85 85 12 85 12 12 85 85 85 85 12 85 85 85 85 85 85 85 85 12 85 85 85 12 85 85 85 85 85 12 85 85 12 12 12 85 85 12 85 12 12 12 12 85 12 85 85 12 85 85 85 12 85 85 85 85 85 85 12 12 12 12 12 12 85 85 12 85 85 85 12 12 12 12 12 12 12 12 85 12 85 12 85 85 12 85 12 85 85 85 12 85 12 85 12 12 12 85 12 12 85 12 85 85 85 85 12 12 12 12 85 12 85 12 85 85 12 12 85 85 12 12 85 85 12 12 12 85 12 85 12 85 12 85 85 12 85 12 85 12 85 12 12 12 85 12 12 12 85 12 12 12 85 12 12 12 85 85 85 85 85 12 85 85 12 85 12 12 12 85 12 12 12 85 85 12 12 12 85 12 85 85 85 85 12 12 85 85 12 85 85 12 12 85 12 12 85 12 85 12 12 12 85 85 12 12 12 85 85 12 12 12 12 12 12 12 85 12 12 12 12 12 12 12 12 85 85 12 12 85 85 85 85 85 85 12 12 12 85 85 12 12 12 85 12 85 12 12 85 85 12 12 12 85 85 85 85 85 12 85 12 12 85 12 85 12 85 12 85 85 12 12 85 85 85 12 12 12 85 12 85 12 85 12 12 12 85 85 12 12 85 85 12 85 12 12 12 85 85 85 85 85 12 85 85 12 12 12 12 85 85 12 12 12 85 12 85 85 12 12 85 12 85 12 12 12 85 12 12 85 12 85 85 85 85 12 85 85 85 12 85 12 85 12 85 85 85 85 12 12 12 12 85 12 85 85 12 85 12 85 85 85 85 12 85 12 85 85 12 85 12 12 12 12 85 12 85 12 12 12 85 12 85 12 85 85 12 12 85 85 85 85 85 85 12 85 12 12 12 85 85 85 12 12 85 85 12 85 12 85 12 12 12 12 85 85 12 12 12 12 12 12 12 12 85 12 85 12 85 12 85 85 12 12 85 12 12 12 12 85 12 85 85 12 12 85 12 85 85 85 12 12 85 12 12 85 85 12 12 85 85 12 12 12 12 12 12 85 85 85 12 12 12 12 85 85 12 12 12 12 85 85 12 85 12 85 85 12 12 12 85 12 12 12 85 85 85 12 85 85 85 12 12 12 85 85 12 85 12 85 12 12 12 85 12 85 85 12 85 12 12 85 85 85 12 12 85 12 85 85 12 85 85 85 12 85 85 12 85 85 12 85 12 85 85 12 12 12 85 12 85 12 12 12 12 85 85 12 12 85 85 85 12 85 85 85 85 12 12 12 12 12 12 85 12 12 12 85 85 85 12 12 12 85 85 12 85 85 85 12 85 85 12 12 85 85 85 12 12 12 85 85 85 12 85 85 85 85 85 12 85 85 85 12 85 85 85 12 85 12 85 85 12 85 85 85 85 85 12 12 12 12 12 85 85 12 85 85 12 85 12 12 85 12 12 12 12 12 85 12 85 85 85 85 85 85 85 85 85 12 12 12 85 85 12 85 85 12 85 12 85 85 12 85 12 85 12 12 12 12 85 85 85 85 85 85 85 85 12 85 12 85 85 12 12 12 12 12 12 12 85 12 12 12 12 12 12 12 85 12 85 85 12 85 12 12 12 12 12 85 85 85 85 85 12 12 12 85 85 85 12 12 12 12 85 12 85 85 85 85 12 85 85 85 12 12 12 85 12 85 85 12 85 85 12 12 85 85 12 85 12 85 12 85 12 85 12 12 85 12 12 12 85 85 12 12 12 85 12 85 85 12 12 85 12 85 12 12 12 85 85 85 85 12 85 85 12 85 12 12 12 12 85 12 12 12 85 85 12 12 12 12 85 85 12 85 12 85 12 85 85 12 85 12 12 85 12 85 85 85 85 85 12 85 12 85 85 85 12 12 12 85 12 85 85 85 85 12 12 12 12 12 12 12 85 85 85 12 85 85 85 85 85 12 12 85 85 12 85 12 85 12 12 12 12 12 85 12 12 12 12 85 85 85 85 12 85 85 85 85 85 85 12 12 85 85 12 85 12 12 12 12 85 85 12 85 12 12 12 85 85 85 12 85 85 12 12 85 12 85 12 12 85 85 85 85 85 12 85 12 85 12 85 12 12 12 12 12 85 85 12 85 12 85 12 12 12 85 85 85 85 12 85 12 12 85 12 12 85 85 85 85 12 85 12 12 85 85 85 85 12 12 12 85 85 85 12 12 85 12 85 12 85 85 85 12 85 12 85 85 12 85 12 12 12 85 85 12 12 85 12 85 12 85 85 12 85 12 12 12 12 12 85 12 12 85 12 12 12 12 85 12 85 12 85 12 12 85 85 85 85 12 85 12 85 85 12 85 85 85 12 12 12 12 85 85 12 12 12 12 12 12 85 12 85 85 85 85 85 85 85 85 12 12 12 12 12 85 85 12 85 12 85 12 12 12 12 85 85 12 12 12 85 12 85 12 12 85 12 12 85 12 12 85 85 12 12 85 12 12 12 85 12 85 12 85 12 12 85 12 85 85 12 85 12 12 12 12 85 85 85 85 85 85 85 85 12 85 85 85 12 85 85 85 85 85 85 12 12 12 85 12 12 12 12 85 12 12 12 12 12 85 12 12 85 85 85 12 85 85 12 12 85 85 85 85 85 85 12 12 12 85 85 85 12 12 12 85 85 85 12 85 85 12 12 85 12 12 12 12 85 12 85 85 12 85 12 12 12 85 85 85 85 85 12 85 12 85 85 85 85 85 85 12 12 12 12 85 12 12 12 12 85 12 12 12 85 85 85 12 12 85 12 12 85 85 12 12 85 85 12 12 85 12 85 12 12 12 12 85 85 85 12 85 12 85 12 12 12 12 85 85 12 85 12 12 85 12 12 12 12 85 85 12 85 85 85 12 12 12 12 85 12 85 85 85 85 85 85 12 12 85 12 12 85 12 85 12 85 12 85 12 85 85 85 85 85 85 12 12 12 85 12 85 85 85 85 85 85 85 85 12 12 12 85 12 85 12 85 85 85 85 12 85 85 12 85 85 12 12 85 85 12 12 85 12 12 12 85 12 12 85 12 85 12 12 85 85 85 85 85 12 12 85 12 12 12 85 85 12 12 85 12 12 12 85 85 12 12 85 85 85 85 12 12 85 12 12 85 12 12 85 85 85 85 85 85 85 85 85 12 12 85 85 85 12 85 12 85 12 12 12 85 85 85 12 85 12 85 85 12 12 85 12 85 12 12 85 12 12 85 85 12 85 85 12 12 12 85 85 85 85 12 85 85 12 12 85 12 12 85 85 12 85 12 12 12 12 12 85 85 12 85 12 12 12 12 85 85 12 85 85 12 12 12 12 12 85 12 85 85 12 85 12 85 12 85 12 85 12 85 12 85 85 85 12 12 12 12 12 12 85 85 85 12 12 85 85 12 12 85 12 12 85 85 12 85 85 85 85 12 85 12 12 12 85 85 85 12 85 85 85 85 85 12 12 12 12 85 85 85 85 85 12 12 85 85 12 12 12 12 85 12 12 85 85 12 85 12 85 85 12 12 85 12 85 85 85 12 85 85 12 85 85 12 12 12 12 85 85 85 85 85 85 12 85 85 85 12 12 85 12 85 12 85 12 12 85 12 85 85 85 85 85 85 12 85 12 85 85 12 12 85 85 12 12 85 12 12 12 12 85 12 12 12 12 12 12 12 85 12 12 85 12 12 12 85 12 85 12 85 85 85 85 85 12 85 85 85 12 85 12 12 12 12 12 85 85 85 12 85 12 85 12 12 12 85 12 12 85 85 12 85 85 12 85 12 12 12 85 12 12 12 85 85 85 12 85 85 12 12 12 12 12 85 85 85 85 12 12 85 85 85 12 85 85 12 85 12 85 85 85 12 12 12 12 85 85 12 85 85 85 12 12 12 12 12 85 12 85 12 85 85 85 12 12 85 85 12 12 12 12 85 85 85 12 85 85 12 12 12 12 85 85 85 12 85 12 12 12 85 12 12 85 12 85 12 12 12 85 85 85 12 85 85 85 12 85 85 12 85 12 85 85 85 12 12 85 85 12 12 85 85 12 12 12 12 85 85 85 12 85 85 85 12 12 85 85 12 12 12 12 85 85 12 85 12 12 85 12 85 85 85 85 12 12 12 85 12 12 12 85 12 12 12 85 85 12 12 85 85 85 12 12 85 12 12 12 85 85 12 85 85 12 85 12 85 12 12 12 85 85 85 12 85 12 85 85 85 12 85 12 12 85 85 85 12 12 12 12 12 85 12 12 12 12 85 12 85 85 12 85 85 12 12 85 85 12 12 85 85 12 12 85 12 12 85 85 12 12 12 85 85 85 85 12 12 85 12 12 85 85 12 12 12 12 12 12 85 85 12 12 85 12 12 12 85 12 85 12 85 12 85 85 85 85 85 12 85 12 12 12 12 85 85 85 12 12 12 85 85 85 12 85 12 85 12 85 12 12 12 12 12 12 85 12 12 85 85 85 12 12 12 85 85 12 85 12 85 12 12 85 12 85 85 12 85 85 12 12 12 85 12 85 85 12 12 12 12 85 12 85 12 85 85 12 12 85 12 85 12 85 85 85 12 12 12 12 12 85 12 85 12 85 12 12 12 85 85 85 85 85 85 85 85 85 12 85 85 85 85 12 12 85 12 85 12 12 12 85 12 85 12 85 85 85 12 12 85 85 12 12 85 12 12 85 12 85 85 12 12 85 85 85 12 85 85 85 12 12 12 85 85 85 12 85 85 85 85 85 85 12 12 85 12 85 12 85 12 12 85 85 85 85 85 12 85 85 12 12 12 85 85 12 85 12 85 85 12 85 12 85 12 85 85 85 12 12 12 85 12 12 85 12 12 85 85 85 85 12 12 12 85 12 12 85 85 12 12 85 12 85 85 85 85 85 12 12 85 85 12 12 12 12 85 85 12 85 85 12 12 85 12 12 12 85 85 85 12 12 85 85 12 85 85 12 85 12 12 85 12 85 12 85 85 12 12 12 12 12 12 12 12 85 85 12 85 85 12 12 12 12 12 85 12 12 85 12 12 12 85 85 12 12 12 12 12 85 12 85 12 85 12 12 85 85 85 85 85 12 12 85 85 85 85 12 12 85 85 85 12 85 12 12 85 85 85 12 85 12 12 12 12 12 85 12 12 85 12 12 12 85 12 12 85 85 85 85 85 12 85 85 12 12 12 12 12 12 85 12 12 85 12 85 12 12 85 85 85 12 12 12 85 12 12 85 12 12 85 12 85 12 12 85 85 85 12 85 85 85 12 12 85 85 12 12 85 12 12 85 12 85 12 12 12 85 12 85 85 85 85 85 12 12 85 12 85 85 12 85 85 12 12 85 12 85 12 12 85 85 12 12 85 12 85 85 12 12 85 12 12 85 85 85 85 85 85 85 85 12 85 85 85 12 85 85 12 12 12 12 12 12 85 85 85 85 85 12 85 85 12 12 12 12 85 12 12 85 12 85 12 12 85 85 85 12 85 12 85 12 12 85 85 12 85 85 85 85 85 85 85 12 12 12 85 12 85 12 12 12 12 12 85 85 12 85 12 12 85 12 85 12 12 12 85 12 12 85 12 12 85 85 85 85 12 85 12 85 85 12 12 12 85 85 12 12 85 85 85 85 85 85 12 12 12 85 12 12 85 85 85 12 85 12 12 85 12 85 85 12 12 12 12 12 12 85 85 85 12 85 85 12 12 85 85 85 85 12 12 85 85 85 12 85 12 85 85 85 12 85 85 85 85 12 85 12 12 85 12 85 12 85 12 85 85 85 85 85 12 85 85 12 85 85 85 12 85 85 12 12 12 12 85 12 85 85 85 85 85 85 85 12 85 85 12 85 85 85 85 12 85 85 12 85 85 12 12 12 12 85 85 85 85 85 12 85 85 85 85 12 85 12 85 85 12 85 85 12 85 85 85 85 85 12 85 12 85 12 85 85 12 85 85 12 12 85 85 12 85 85 85 85 12 12 85 85 12 85 12 12 85 85 12 85 12 12 12 85 85 12 85 12 85 85 12 12 85 12 85 85 12 12 85 12 85 85 12 12 85 12 85 85 12 12 12 85 85 85 85 85 85 85 12 85 12 85 12 12 12 12 85 12 85 85 85 85 12 12 12 12 85 12 85 12 85 12 85 85 12 85 85 12 12 85 12 85 85 85 12 85 85 12 12 85 85 12 12 12 85 85 85 12 85 85 85 85 12 85 12 12 12 12 85 85 12 85 85 85 85 12 85 85 12 12 12 12 85 85 85 85 85 85 12 85 12 85 12 85 85 85 12 12 12 85 12 12 85 12 12 85 12 12 12 85 85 85 12 85 85 12 85 85 12 85 12 85 85 85 12 85 85 85 85 12 85 12 85 85 12 12 12 85 85 85 85 85 85 12 85 85 85 12 85 12 12 12 85 12 12 12 12 12 12 12 12 85 12 12 85 85 12 12 85 12 12 85 85 12 12 85 12 12 12 85 85 85 12 85 12 12 12 12 85 12 85 12 12 12 12 12 12 85 12 12 12 85 12 12 85 85 85 12 12 12 12 85 85 12 85 12 85 85 85 85 12 12 85 85 85 12 12 85 12 85 12 85 12 12 85 12 12 85 85 12 12 85 12 12 12 12 12 12 12 12 12 85 85 12 85 12 85 85 12 12 85 85 85 12 12 85 85 12 85 12 85 12 12 12 12 85 85 85 12 85 12 85 85 85 85 12 12 85 12 85 85 12 85 85 12 85 85 12 12 85 85 12 12 12 85 85 12 85 85 85 85 85 12 12 85 12 85 12 12 12 12 12 85 12 12 12 12 12 12 85 12 12 12 12 12 12 12 85 85 85 12 85 85 85 12 85 12 12 12 85 85 85 85 12 12 12 85 12 12 12 12 85 12 12 12 85 85 12 85 85 12 12 12 12 12 85 12 85 85 85 12 85 85 12 12 12 85 85 85 12 12 85 85 85 12 12 85 12 85 12 85 12 85 12 85 85 12 12 85 12 12 12 85 12 85 12 12 12 12 12 85 12 12 85 12 85 85 85 85 85 12 85 85 12 12 85 12 85 85 85 85 12 12 85 12 85 12 85 12 12 12 12 85 12 85 12 12 85 12 12 85 85 12 85 85 85 12 12 12 12 12 12 85 12 12 12 12 85 12 85 12 12 12 12 85 12 12 12 12 85 12 85 12 85 85 12 12 12 85 85 85 85 12 12 12 85 85 85 85 85 85 85 12 12 12 12 12 85 85 85 12 12 85 85 85 12 12 12 85 12 12 12 12 85 85 85 85 85 85 85 85 85 85 12 85 85 85 12 85 12 12 12 85 85 12 85 12 85 12 12 85 85 85 12 85 85 85 85 12 85 12 12 12 12 12 12 12 12 85 85 85 12 12 12 12 12 12 85 12 12 85 12 12 85 12 85 12 12 85 85 12 12 12 85 12 85 12 85 85 12 85 85 12 85 12 85 12 12 12 85 85 12 85 12 12 12 12 85 85 85 85 12 12 85 85 85 85 12 12 85 12 12 12 85 12 85 85 85 12 12 12 12 85 12 12 85 85 85 85 85 85 12 12 85 12 12 85 12 12 12 85 85 12 12 85 85 12 85 12 12 85 85 85 85 12 12 85 12 85 12 12 85 85 85 85 12 85 12 85 12 85 85 12 12 12 12 85 12 12 12 85 12 12 85 85 85 85 85 12 85 12 85 85 12 85 12 85 85 85 12 12 85 12 85 85 12 12 85 85 12 12 85 85 85 85 85 85 85 12 12 85 85 12 12 85 12 85 85 85 85 12 12 85 12 85 85 85 12 85 85 85 12 85 12 12 85 12 12 12 85 85 12 12 12 85 12 12 85 12 12 85 12 85 12 85 85 12 85 85 85 85 85 12 85 12 12 85 12 85 12 12 12 12 85 85 12 12 12 85 12 85 85 85 12 12 85 12 12 85 12 12 85 85 85 85 12 12 85 85 85 85 85 12 12 85 12 85 85 12 85 12 12 12 12 85 85 12 85 12 12 12 85 12 12 12 12 12 85 12 12 85 12 